p tw 169 30421 2 
1 3 
1 4 
1 5 
1 6 
1 7 
1 8 
1 9 
1 10 
1 11 
1 12 
1 13 
1 14 
1 20 
1 27 
1 32 
1 40 
1 44 
1 53 
1 56 
1 66 
1 68 
1 79 
1 80 
1 92 
1 99 
1 105 
1 117 
1 118 
1 127 
1 131 
1 141 
1 144 
1 155 
1 157 
1 165 
2 3 
2 4 
2 5 
2 6 
2 7 
2 8 
2 9 
2 10 
2 11 
2 12 
2 13 
2 15 
2 25 
2 28 
2 29 
2 41 
2 48 
2 54 
2 57 
2 67 
2 75 
2 80 
2 84 
2 93 
2 95 
2 105 
2 106 
2 119 
2 130 
2 132 
2 137 
2 145 
2 154 
2 158 
2 164 
3 4 
3 5 
3 6 
3 7 
3 8 
3 9 
3 10 
3 11 
3 12 
3 13 
3 16 
3 17 
3 28 
3 29 
3 42 
3 50 
3 53 
3 55 
3 68 
3 78 
3 81 
3 88 
3 94 
3 97 
3 107 
3 116 
3 120 
3 126 
3 133 
3 138 
3 146 
3 148 
3 159 
3 163 
4 5 
4 6 
4 7 
4 8 
4 9 
4 10 
4 11 
4 12 
4 13 
4 17 
4 24 
4 30 
4 39 
4 41 
4 43 
4 56 
4 59 
4 69 
4 77 
4 81 
4 82 
4 95 
4 101 
4 108 
4 113 
4 121 
4 125 
4 131 
4 134 
4 147 
4 149 
4 160 
4 161 
5 6 
5 7 
5 8 
5 9 
5 10 
5 11 
5 12 
5 13 
5 14 
5 18 
5 31 
5 37 
5 44 
5 51 
5 57 
5 65 
5 70 
5 74 
5 83 
5 86 
5 96 
5 98 
5 107 
5 109 
5 122 
5 123 
5 135 
5 140 
5 147 
5 148 
5 158 
5 161 
6 7 
6 8 
6 9 
6 10 
6 11 
6 12 
6 13 
6 18 
6 19 
6 27 
6 32 
6 45 
6 52 
6 58 
6 62 
6 71 
6 73 
6 84 
6 85 
6 97 
6 100 
6 110 
6 115 
6 120 
6 123 
6 136 
6 142 
6 145 
6 149 
6 160 
6 162 
7 8 
7 9 
7 10 
7 11 
7 12 
7 13 
7 20 
7 23 
7 33 
7 35 
7 40 
7 46 
7 59 
7 63 
7 71 
7 72 
7 83 
7 85 
7 98 
7 104 
7 108 
7 111 
7 119 
7 124 
7 133 
7 137 
7 150 
7 151 
7 163 
7 168 
8 9 
8 10 
8 11 
8 12 
8 13 
8 15 
8 21 
8 33 
8 34 
8 43 
8 47 
8 55 
8 60 
8 66 
8 73 
8 86 
8 87 
8 99 
8 102 
8 109 
8 112 
8 125 
8 129 
8 136 
8 138 
8 151 
8 153 
8 164 
8 169 
9 10 
9 11 
9 12 
9 13 
9 22 
9 26 
9 31 
9 35 
9 47 
9 48 
9 61 
9 64 
9 72 
9 74 
9 79 
9 87 
9 93 
9 100 
9 113 
9 114 
9 126 
9 128 
9 134 
9 139 
9 146 
9 152 
9 162 
9 165 
10 11 
10 12 
10 13 
10 22 
10 23 
10 34 
10 36 
10 46 
10 49 
10 58 
10 62 
10 75 
10 76 
10 82 
10 88 
10 101 
10 103 
10 106 
10 114 
10 118 
10 127 
10 135 
10 140 
10 153 
10 156 
10 159 
10 166 
11 12 
11 13 
11 16 
11 24 
11 37 
11 38 
11 45 
11 50 
11 54 
11 63 
11 70 
11 76 
11 89 
11 91 
11 92 
11 102 
11 112 
11 115 
11 121 
11 128 
11 139 
11 141 
11 150 
11 154 
11 166 
11 167 
12 13 
12 19 
12 25 
12 30 
12 38 
12 49 
12 51 
12 60 
12 64 
12 67 
12 77 
12 89 
12 90 
12 94 
12 103 
12 111 
12 116 
12 122 
12 129 
12 142 
12 143 
12 152 
12 155 
12 157 
12 168 
13 21 
13 26 
13 36 
13 39 
13 42 
13 52 
13 61 
13 65 
13 69 
13 78 
13 90 
13 91 
13 96 
13 104 
13 110 
13 117 
13 124 
13 130 
13 132 
13 143 
13 144 
13 156 
13 167 
13 169 
14 15 
14 16 
14 17 
14 18 
14 19 
14 20 
14 21 
14 22 
14 23 
14 24 
14 25 
14 26 
14 27 
14 37 
14 40 
14 51 
14 53 
14 65 
14 66 
14 74 
14 79 
14 86 
14 92 
14 98 
14 105 
14 107 
14 118 
14 123 
14 131 
14 140 
14 144 
14 147 
14 157 
14 158 
15 16 
15 17 
15 18 
15 19 
15 20 
15 21 
15 22 
15 23 
15 24 
15 25 
15 26 
15 28 
15 33 
15 41 
15 43 
15 54 
15 55 
15 66 
15 67 
15 80 
15 87 
15 93 
15 102 
15 106 
15 109 
15 119 
15 129 
15 132 
15 136 
15 145 
15 153 
15 158 
15 169 
16 17 
16 18 
16 19 
16 20 
16 21 
16 22 
16 23 
16 24 
16 25 
16 26 
16 29 
16 38 
16 42 
16 45 
16 54 
16 55 
16 68 
16 70 
16 81 
16 91 
16 92 
16 94 
16 107 
16 112 
16 120 
16 121 
16 133 
16 139 
16 146 
16 150 
16 159 
16 166 
17 18 
17 19 
17 20 
17 21 
17 22 
17 23 
17 24 
17 25 
17 26 
17 28 
17 30 
17 43 
17 50 
17 53 
17 56 
17 69 
17 78 
17 82 
17 88 
17 95 
17 97 
17 108 
17 116 
17 121 
17 126 
17 134 
17 138 
17 147 
17 148 
17 160 
17 163 
18 19 
18 20 
18 21 
18 22 
18 23 
18 24 
18 25 
18 26 
18 27 
18 31 
18 44 
18 52 
18 57 
18 62 
18 70 
18 73 
18 83 
18 85 
18 96 
18 100 
18 109 
18 115 
18 120 
18 122 
18 135 
18 142 
18 145 
18 148 
18 160 
18 161 
19 20 
19 21 
19 22 
19 23 
19 24 
19 25 
19 26 
19 30 
19 32 
19 45 
19 49 
19 58 
19 60 
19 67 
19 71 
19 84 
19 89 
19 94 
19 97 
19 110 
19 111 
19 122 
19 123 
19 136 
19 143 
19 149 
19 152 
19 157 
19 162 
20 21 
20 22 
20 23 
20 24 
20 25 
20 26 
20 32 
20 33 
20 44 
20 46 
20 56 
20 59 
20 68 
20 72 
20 80 
20 85 
20 98 
20 99 
20 111 
20 117 
20 124 
20 127 
20 137 
20 141 
20 150 
20 155 
20 163 
20 165 
21 22 
21 23 
21 24 
21 25 
21 26 
21 34 
21 36 
21 42 
21 47 
21 60 
21 61 
21 69 
21 73 
21 86 
21 90 
21 96 
21 99 
21 110 
21 112 
21 124 
21 125 
21 132 
21 138 
21 144 
21 151 
21 164 
21 167 
22 23 
22 24 
22 25 
22 26 
22 34 
22 35 
22 46 
22 48 
22 58 
22 61 
22 74 
22 76 
22 82 
22 87 
22 100 
22 103 
22 106 
22 113 
22 118 
22 126 
22 135 
22 139 
22 152 
22 156 
22 159 
22 165 
23 24 
23 25 
23 26 
23 35 
23 36 
23 40 
23 49 
23 62 
23 63 
23 71 
23 75 
23 83 
23 88 
23 101 
23 104 
23 108 
23 114 
23 119 
23 127 
23 133 
23 140 
23 151 
23 153 
23 166 
23 168 
24 25 
24 26 
24 37 
24 39 
24 41 
24 50 
24 59 
24 63 
24 76 
24 77 
24 81 
24 89 
24 101 
24 102 
24 113 
24 115 
24 125 
24 128 
24 131 
24 141 
24 149 
24 154 
24 161 
24 167 
25 26 
25 29 
25 38 
25 48 
25 51 
25 57 
25 64 
25 75 
25 77 
25 84 
25 90 
25 95 
25 103 
25 105 
25 116 
25 129 
25 130 
25 137 
25 142 
25 154 
25 155 
25 164 
25 168 
26 31 
26 39 
26 47 
26 52 
26 64 
26 65 
26 72 
26 78 
26 79 
26 91 
26 93 
26 104 
26 114 
26 117 
26 128 
26 130 
26 134 
26 143 
26 146 
26 156 
26 162 
26 169 
27 28 
27 29 
27 30 
27 31 
27 32 
27 33 
27 34 
27 35 
27 36 
27 37 
27 38 
27 39 
27 40 
27 52 
27 53 
27 62 
27 66 
27 73 
27 79 
27 85 
27 92 
27 100 
27 105 
27 115 
27 118 
27 120 
27 131 
27 142 
27 144 
27 145 
27 157 
27 160 
28 29 
28 30 
28 31 
28 32 
28 33 
28 34 
28 35 
28 36 
28 37 
28 38 
28 39 
28 41 
28 50 
28 53 
28 54 
28 67 
28 78 
28 80 
28 88 
28 93 
28 97 
28 106 
28 116 
28 119 
28 126 
28 132 
28 138 
28 145 
28 148 
28 158 
28 163 
29 30 
29 31 
29 32 
29 33 
29 34 
29 35 
29 36 
29 37 
29 38 
29 39 
29 42 
29 48 
29 55 
29 57 
29 68 
29 75 
29 81 
29 84 
29 94 
29 95 
29 105 
29 107 
29 120 
29 130 
29 133 
29 137 
29 146 
29 154 
29 159 
29 164 
30 31 
30 32 
30 33 
30 34 
30 35 
30 36 
30 37 
30 38 
30 39 
30 43 
30 49 
30 56 
30 60 
30 67 
30 69 
30 82 
30 89 
30 94 
30 95 
30 108 
30 111 
30 121 
30 122 
30 134 
30 143 
30 147 
30 152 
30 157 
30 160 
31 32 
31 33 
31 34 
31 35 
31 36 
31 37 
31 38 
31 39 
31 44 
31 47 
31 57 
31 64 
31 70 
31 72 
31 79 
31 83 
31 93 
31 96 
31 109 
31 114 
31 122 
31 128 
31 134 
31 135 
31 146 
31 148 
31 161 
31 162 
32 33 
32 34 
32 35 
32 36 
32 37 
32 38 
32 39 
32 44 
32 45 
32 56 
32 58 
32 68 
32 71 
32 80 
32 84 
32 97 
32 99 
32 110 
32 117 
32 123 
32 127 
32 136 
32 141 
32 149 
32 155 
32 162 
32 165 
33 34 
33 35 
33 36 
33 37 
33 38 
33 39 
33 43 
33 46 
33 55 
33 59 
33 66 
33 72 
33 85 
33 87 
33 98 
33 102 
33 109 
33 111 
33 124 
33 129 
33 136 
33 137 
33 150 
33 153 
33 163 
33 169 
34 35 
34 36 
34 37 
34 38 
34 39 
34 46 
34 47 
34 58 
34 60 
34 73 
34 76 
34 82 
34 86 
34 99 
34 103 
34 106 
34 112 
34 118 
34 125 
34 135 
34 138 
34 151 
34 156 
34 159 
34 164 
35 36 
35 37 
35 38 
35 39 
35 40 
35 48 
35 61 
35 63 
35 71 
35 74 
35 83 
35 87 
35 100 
35 104 
35 108 
35 113 
35 119 
35 126 
35 133 
35 139 
35 151 
35 152 
35 165 
35 168 
36 37 
36 38 
36 39 
36 42 
36 49 
36 61 
36 62 
36 69 
36 75 
36 88 
36 90 
36 96 
36 101 
36 110 
36 114 
36 124 
36 127 
36 132 
36 140 
36 144 
36 153 
36 166 
36 167 
37 38 
37 39 
37 50 
37 51 
37 63 
37 65 
37 74 
37 76 
37 86 
37 89 
37 98 
37 102 
37 107 
37 115 
37 123 
37 128 
37 140 
37 141 
37 147 
37 154 
37 158 
37 167 
38 39 
38 45 
38 51 
38 54 
38 64 
38 70 
38 77 
38 90 
38 91 
38 92 
38 103 
38 112 
38 116 
38 121 
38 129 
38 139 
38 142 
38 150 
38 155 
38 166 
38 168 
39 41 
39 52 
39 59 
39 65 
39 77 
39 78 
39 81 
39 91 
39 101 
39 104 
39 113 
39 117 
39 125 
39 130 
39 131 
39 143 
39 149 
39 156 
39 161 
39 169 
40 41 
40 42 
40 43 
40 44 
40 45 
40 46 
40 47 
40 48 
40 49 
40 50 
40 51 
40 52 
40 53 
40 63 
40 66 
40 71 
40 79 
40 83 
40 92 
40 104 
40 105 
40 108 
40 118 
40 119 
40 131 
40 133 
40 144 
40 151 
40 157 
40 168 
41 42 
41 43 
41 44 
41 45 
41 46 
41 47 
41 48 
41 49 
41 50 
41 51 
41 52 
41 54 
41 59 
41 67 
41 77 
41 80 
41 81 
41 93 
41 101 
41 106 
41 113 
41 119 
41 125 
41 131 
41 132 
41 145 
41 149 
41 158 
41 161 
42 43 
42 44 
42 45 
42 46 
42 47 
42 48 
42 49 
42 50 
42 51 
42 52 
42 55 
42 61 
42 68 
42 69 
42 81 
42 90 
42 94 
42 96 
42 107 
42 110 
42 120 
42 124 
42 132 
42 133 
42 144 
42 146 
42 159 
42 167 
43 44 
43 45 
43 46 
43 47 
43 48 
43 49 
43 50 
43 51 
43 52 
43 55 
43 56 
43 66 
43 69 
43 82 
43 87 
43 95 
43 102 
43 108 
43 109 
43 121 
43 129 
43 134 
43 136 
43 147 
43 153 
43 160 
43 169 
44 45 
44 46 
44 47 
44 48 
44 49 
44 50 
44 51 
44 52 
44 56 
44 57 
44 68 
44 70 
44 80 
44 83 
44 96 
44 99 
44 109 
44 117 
44 122 
44 127 
44 135 
44 141 
44 148 
44 155 
44 161 
44 165 
45 46 
45 47 
45 48 
45 49 
45 50 
45 51 
45 52 
45 54 
45 58 
45 70 
45 71 
45 84 
45 91 
45 92 
45 97 
45 110 
45 112 
45 121 
45 123 
45 136 
45 139 
45 149 
45 150 
45 162 
45 166 
46 47 
46 48 
46 49 
46 50 
46 51 
46 52 
46 58 
46 59 
46 72 
46 76 
46 82 
46 85 
46 98 
46 103 
46 106 
46 111 
46 118 
46 124 
46 135 
46 137 
46 150 
46 156 
46 159 
46 163 
47 48 
47 49 
47 50 
47 51 
47 52 
47 60 
47 64 
47 72 
47 73 
47 79 
47 86 
47 93 
47 99 
47 112 
47 114 
47 125 
47 128 
47 134 
47 138 
47 146 
47 151 
47 162 
47 164 
48 49 
48 50 
48 51 
48 52 
48 57 
48 61 
48 74 
48 75 
48 84 
48 87 
48 95 
48 100 
48 105 
48 113 
48 126 
48 130 
48 137 
48 139 
48 152 
48 154 
48 164 
48 165 
49 50 
49 51 
49 52 
49 60 
49 62 
49 67 
49 75 
49 88 
49 89 
49 94 
49 101 
49 111 
49 114 
49 122 
49 127 
49 140 
49 143 
49 152 
49 153 
49 157 
49 166 
50 51 
50 52 
50 53 
50 63 
50 76 
50 78 
50 88 
50 89 
50 97 
50 102 
50 115 
50 116 
50 126 
50 128 
50 138 
50 141 
50 148 
50 154 
50 163 
50 167 
51 52 
51 64 
51 65 
51 74 
51 77 
51 86 
51 90 
51 98 
51 103 
51 107 
51 116 
51 123 
51 129 
51 140 
51 142 
51 147 
51 155 
51 158 
51 168 
52 62 
52 65 
52 73 
52 78 
52 85 
52 91 
52 100 
52 104 
52 115 
52 117 
52 120 
52 130 
52 142 
52 143 
52 145 
52 156 
52 160 
52 169 
53 54 
53 55 
53 56 
53 57 
53 58 
53 59 
53 60 
53 61 
53 62 
53 63 
53 64 
53 65 
53 66 
53 78 
53 79 
53 88 
53 92 
53 97 
53 105 
53 116 
53 118 
53 126 
53 131 
53 138 
53 144 
53 148 
53 157 
53 163 
54 55 
54 56 
54 57 
54 58 
54 59 
54 60 
54 61 
54 62 
54 63 
54 64 
54 65 
54 67 
54 70 
54 80 
54 91 
54 92 
54 93 
54 106 
54 112 
54 119 
54 121 
54 132 
54 139 
54 145 
54 150 
54 158 
54 166 
55 56 
55 57 
55 58 
55 59 
55 60 
55 61 
55 62 
55 63 
55 64 
55 65 
55 66 
55 68 
55 81 
55 87 
55 94 
55 102 
55 107 
55 109 
55 120 
55 129 
55 133 
55 136 
55 146 
55 153 
55 159 
55 169 
56 57 
56 58 
56 59 
56 60 
56 61 
56 62 
56 63 
56 64 
56 65 
56 68 
56 69 
56 80 
56 82 
56 95 
56 99 
56 108 
56 117 
56 121 
56 127 
56 134 
56 141 
56 147 
56 155 
56 160 
56 165 
57 58 
57 59 
57 60 
57 61 
57 62 
57 63 
57 64 
57 65 
57 70 
57 75 
57 83 
57 84 
57 95 
57 96 
57 105 
57 109 
57 122 
57 130 
57 135 
57 137 
57 148 
57 154 
57 161 
57 164 
58 59 
58 60 
58 61 
58 62 
58 63 
58 64 
58 65 
58 71 
58 76 
58 82 
58 84 
58 97 
58 103 
58 106 
58 110 
58 118 
58 123 
58 135 
58 136 
58 149 
58 156 
58 159 
58 162 
59 60 
59 61 
59 62 
59 63 
59 64 
59 65 
59 72 
59 77 
59 81 
59 85 
59 98 
59 101 
59 111 
59 113 
59 124 
59 125 
59 131 
59 137 
59 149 
59 150 
59 161 
59 163 
60 61 
60 62 
60 63 
60 64 
60 65 
60 67 
60 73 
60 86 
60 89 
60 94 
60 99 
60 111 
60 112 
60 122 
60 125 
60 138 
60 143 
60 151 
60 152 
60 157 
60 164 
61 62 
61 63 
61 64 
61 65 
61 69 
61 74 
61 87 
61 90 
61 96 
61 100 
61 110 
61 113 
61 124 
61 126 
61 132 
61 139 
61 144 
61 152 
61 165 
61 167 
62 63 
62 64 
62 65 
62 73 
62 75 
62 85 
62 88 
62 100 
62 101 
62 114 
62 115 
62 120 
62 127 
62 140 
62 142 
62 145 
62 153 
62 160 
62 166 
63 64 
63 65 
63 71 
63 76 
63 83 
63 89 
63 102 
63 104 
63 108 
63 115 
63 119 
63 128 
63 133 
63 141 
63 151 
63 154 
63 167 
63 168 
64 65 
64 72 
64 77 
64 79 
64 90 
64 93 
64 103 
64 114 
64 116 
64 128 
64 129 
64 134 
64 142 
64 146 
64 155 
64 162 
64 168 
65 74 
65 78 
65 86 
65 91 
65 98 
65 104 
65 107 
65 117 
65 123 
65 130 
65 140 
65 143 
65 147 
65 156 
65 158 
65 169 
66 67 
66 68 
66 69 
66 70 
66 71 
66 72 
66 73 
66 74 
66 75 
66 76 
66 77 
66 78 
66 79 
66 87 
66 92 
66 102 
66 105 
66 109 
66 118 
66 129 
66 131 
66 136 
66 144 
66 153 
66 157 
66 169 
67 68 
67 69 
67 70 
67 71 
67 72 
67 73 
67 74 
67 75 
67 76 
67 77 
67 78 
67 80 
67 89 
67 93 
67 94 
67 106 
67 111 
67 119 
67 122 
67 132 
67 143 
67 145 
67 152 
67 157 
67 158 
68 69 
68 70 
68 71 
68 72 
68 73 
68 74 
68 75 
68 76 
68 77 
68 78 
68 80 
68 81 
68 94 
68 99 
68 107 
68 117 
68 120 
68 127 
68 133 
68 141 
68 146 
68 155 
68 159 
68 165 
69 70 
69 71 
69 72 
69 73 
69 74 
69 75 
69 76 
69 77 
69 78 
69 82 
69 90 
69 95 
69 96 
69 108 
69 110 
69 121 
69 124 
69 132 
69 134 
69 144 
69 147 
69 160 
69 167 
70 71 
70 72 
70 73 
70 74 
70 75 
70 76 
70 77 
70 78 
70 83 
70 91 
70 92 
70 96 
70 109 
70 112 
70 121 
70 122 
70 135 
70 139 
70 148 
70 150 
70 161 
70 166 
71 72 
71 73 
71 74 
71 75 
71 76 
71 77 
71 78 
71 83 
71 84 
71 97 
71 104 
71 108 
71 110 
71 119 
71 123 
71 133 
71 136 
71 149 
71 151 
71 162 
71 168 
72 73 
72 74 
72 75 
72 76 
72 77 
72 78 
72 79 
72 85 
72 93 
72 98 
72 111 
72 114 
72 124 
72 128 
72 134 
72 137 
72 146 
72 150 
72 162 
72 163 
73 74 
73 75 
73 76 
73 77 
73 78 
73 85 
73 86 
73 99 
73 100 
73 112 
73 115 
73 120 
73 125 
73 138 
73 142 
73 145 
73 151 
73 160 
73 164 
74 75 
74 76 
74 77 
74 78 
74 86 
74 87 
74 98 
74 100 
74 107 
74 113 
74 123 
74 126 
74 139 
74 140 
74 147 
74 152 
74 158 
74 165 
75 76 
75 77 
75 78 
75 84 
75 88 
75 95 
75 101 
75 105 
75 114 
75 127 
75 130 
75 137 
75 140 
75 153 
75 154 
75 164 
75 166 
76 77 
76 78 
76 82 
76 89 
76 102 
76 103 
76 106 
76 115 
76 118 
76 128 
76 135 
76 141 
76 154 
76 156 
76 159 
76 167 
77 78 
77 81 
77 90 
77 101 
77 103 
77 113 
77 116 
77 125 
77 129 
77 131 
77 142 
77 149 
77 155 
77 161 
77 168 
78 88 
78 91 
78 97 
78 104 
78 116 
78 117 
78 126 
78 130 
78 138 
78 143 
78 148 
78 156 
78 163 
78 169 
79 80 
79 81 
79 82 
79 83 
79 84 
79 85 
79 86 
79 87 
79 88 
79 89 
79 90 
79 91 
79 92 
79 93 
79 105 
79 114 
79 118 
79 128 
79 131 
79 134 
79 144 
79 146 
79 157 
79 162 
80 81 
80 82 
80 83 
80 84 
80 85 
80 86 
80 87 
80 88 
80 89 
80 90 
80 91 
80 93 
80 99 
80 106 
80 117 
80 119 
80 127 
80 132 
80 141 
80 145 
80 155 
80 158 
80 165 
81 82 
81 83 
81 84 
81 85 
81 86 
81 87 
81 88 
81 89 
81 90 
81 91 
81 94 
81 101 
81 107 
81 113 
81 120 
81 125 
81 131 
81 133 
81 146 
81 149 
81 159 
81 161 
82 83 
82 84 
82 85 
82 86 
82 87 
82 88 
82 89 
82 90 
82 91 
82 95 
82 103 
82 106 
82 108 
82 118 
82 121 
82 134 
82 135 
82 147 
82 156 
82 159 
82 160 
83 84 
83 85 
83 86 
83 87 
83 88 
83 89 
83 90 
83 91 
83 96 
83 104 
83 108 
83 109 
83 119 
83 122 
83 133 
83 135 
83 148 
83 151 
83 161 
83 168 
84 85 
84 86 
84 87 
84 88 
84 89 
84 90 
84 91 
84 95 
84 97 
84 105 
84 110 
84 123 
84 130 
84 136 
84 137 
84 149 
84 154 
84 162 
84 164 
85 86 
85 87 
85 88 
85 89 
85 90 
85 91 
85 98 
85 100 
85 111 
85 115 
85 120 
85 124 
85 137 
85 142 
85 145 
85 150 
85 160 
85 163 
86 87 
86 88 
86 89 
86 90 
86 91 
86 98 
86 99 
86 107 
86 112 
86 123 
86 125 
86 138 
86 140 
86 147 
86 151 
86 158 
86 164 
87 88 
87 89 
87 90 
87 91 
87 100 
87 102 
87 109 
87 113 
87 126 
87 129 
87 136 
87 139 
87 152 
87 153 
87 165 
87 169 
88 89 
88 90 
88 91 
88 97 
88 101 
88 114 
88 116 
88 126 
88 127 
88 138 
88 140 
88 148 
88 153 
88 163 
88 166 
89 90 
89 91 
89 94 
89 102 
89 111 
89 115 
89 122 
89 128 
89 141 
89 143 
89 152 
89 154 
89 157 
89 167 
90 91 
90 96 
90 103 
90 110 
90 116 
90 124 
90 129 
90 132 
90 142 
90 144 
90 155 
90 167 
90 168 
91 92 
91 104 
91 112 
91 117 
91 121 
91 130 
91 139 
91 143 
91 150 
91 156 
91 166 
91 169 
92 93 
92 94 
92 95 
92 96 
92 97 
92 98 
92 99 
92 100 
92 101 
92 102 
92 103 
92 104 
92 105 
92 112 
92 118 
92 121 
92 131 
92 139 
92 144 
92 150 
92 157 
92 166 
93 94 
93 95 
93 96 
93 97 
93 98 
93 99 
93 100 
93 101 
93 102 
93 103 
93 104 
93 106 
93 114 
93 119 
93 128 
93 132 
93 134 
93 145 
93 146 
93 158 
93 162 
94 95 
94 96 
94 97 
94 98 
94 99 
94 100 
94 101 
94 102 
94 103 
94 104 
94 107 
94 111 
94 120 
94 122 
94 133 
94 143 
94 146 
94 152 
94 157 
94 159 
95 96 
95 97 
95 98 
95 99 
95 100 
95 101 
95 102 
95 103 
95 104 
95 105 
95 108 
95 121 
95 130 
95 134 
95 137 
95 147 
95 154 
95 160 
95 164 
96 97 
96 98 
96 99 
96 100 
96 101 
96 102 
96 103 
96 104 
96 109 
96 110 
96 122 
96 124 
96 132 
96 135 
96 144 
96 148 
96 161 
96 167 
97 98 
97 99 
97 100 
97 101 
97 102 
97 103 
97 104 
97 110 
97 116 
97 123 
97 126 
97 136 
97 138 
97 148 
97 149 
97 162 
97 163 
98 99 
98 100 
98 101 
98 102 
98 103 
98 104 
98 107 
98 111 
98 123 
98 124 
98 137 
98 140 
98 147 
98 150 
98 158 
98 163 
99 100 
99 101 
99 102 
99 103 
99 104 
99 112 
99 117 
99 125 
99 127 
99 138 
99 141 
99 151 
99 155 
99 164 
99 165 
100 101 
100 102 
100 103 
100 104 
100 113 
100 115 
100 120 
100 126 
100 139 
100 142 
100 145 
100 152 
100 160 
100 165 
101 102 
101 103 
101 104 
101 113 
101 114 
101 125 
101 127 
101 131 
101 140 
101 149 
101 153 
101 161 
101 166 
102 103 
102 104 
102 109 
102 115 
102 128 
102 129 
102 136 
102 141 
102 153 
102 154 
102 167 
102 169 
103 104 
103 106 
103 116 
103 118 
103 129 
103 135 
103 142 
103 155 
103 156 
103 159 
103 168 
104 108 
104 117 
104 119 
104 130 
104 133 
104 143 
104 151 
104 156 
104 168 
104 169 
105 106 
105 107 
105 108 
105 109 
105 110 
105 111 
105 112 
105 113 
105 114 
105 115 
105 116 
105 117 
105 118 
105 130 
105 131 
105 137 
105 144 
105 154 
105 157 
105 164 
106 107 
106 108 
106 109 
106 110 
106 111 
106 112 
106 113 
106 114 
106 115 
106 116 
106 117 
106 118 
106 119 
106 132 
106 135 
106 145 
106 156 
106 158 
106 159 
107 108 
107 109 
107 110 
107 111 
107 112 
107 113 
107 114 
107 115 
107 116 
107 117 
107 120 
107 123 
107 133 
107 140 
107 146 
107 147 
107 158 
107 159 
108 109 
108 110 
108 111 
108 112 
108 113 
108 114 
108 115 
108 116 
108 117 
108 119 
108 121 
108 133 
108 134 
108 147 
108 151 
108 160 
108 168 
109 110 
109 111 
109 112 
109 113 
109 114 
109 115 
109 116 
109 117 
109 122 
109 129 
109 135 
109 136 
109 148 
109 153 
109 161 
109 169 
110 111 
110 112 
110 113 
110 114 
110 115 
110 116 
110 117 
110 123 
110 124 
110 132 
110 136 
110 144 
110 149 
110 162 
110 167 
111 112 
111 113 
111 114 
111 115 
111 116 
111 117 
111 122 
111 124 
111 137 
111 143 
111 150 
111 152 
111 157 
111 163 
112 113 
112 114 
112 115 
112 116 
112 117 
112 121 
112 125 
112 138 
112 139 
112 150 
112 151 
112 164 
112 166 
113 114 
113 115 
113 116 
113 117 
113 125 
113 126 
113 131 
113 139 
113 149 
113 152 
113 161 
113 165 
114 115 
114 116 
114 117 
114 127 
114 128 
114 134 
114 140 
114 146 
114 153 
114 162 
114 166 
115 116 
115 117 
115 120 
115 128 
115 141 
115 142 
115 145 
115 154 
115 160 
115 167 
116 117 
116 126 
116 129 
116 138 
116 142 
116 148 
116 155 
116 163 
116 168 
117 127 
117 130 
117 141 
117 143 
117 155 
117 156 
117 165 
117 169 
118 119 
118 120 
118 121 
118 122 
118 123 
118 124 
118 125 
118 126 
118 127 
118 128 
118 129 
118 130 
118 131 
118 135 
118 144 
118 156 
118 157 
118 159 
119 120 
119 121 
119 122 
119 123 
119 124 
119 125 
119 126 
119 127 
119 128 
119 129 
119 130 
119 132 
119 133 
119 145 
119 151 
119 158 
119 168 
120 121 
120 122 
120 123 
120 124 
120 125 
120 126 
120 127 
120 128 
120 129 
120 130 
120 133 
120 142 
120 145 
120 146 
120 159 
120 160 
121 122 
121 123 
121 124 
121 125 
121 126 
121 127 
121 128 
121 129 
121 130 
121 134 
121 139 
121 147 
121 150 
121 160 
121 166 
122 123 
122 124 
122 125 
122 126 
122 127 
122 128 
122 129 
122 130 
122 135 
122 143 
122 148 
122 152 
122 157 
122 161 
123 124 
123 125 
123 126 
123 127 
123 128 
123 129 
123 130 
123 136 
123 140 
123 147 
123 149 
123 158 
123 162 
124 125 
124 126 
124 127 
124 128 
124 129 
124 130 
124 132 
124 137 
124 144 
124 150 
124 163 
124 167 
125 126 
125 127 
125 128 
125 129 
125 130 
125 131 
125 138 
125 149 
125 151 
125 161 
125 164 
126 127 
126 128 
126 129 
126 130 
126 138 
126 139 
126 148 
126 152 
126 163 
126 165 
127 128 
127 129 
127 130 
127 140 
127 141 
127 153 
127 155 
127 165 
127 166 
128 129 
128 130 
128 134 
128 141 
128 146 
128 154 
128 162 
128 167 
129 130 
129 136 
129 142 
129 153 
129 155 
129 168 
129 169 
130 137 
130 143 
130 154 
130 156 
130 164 
130 169 
131 132 
131 133 
131 134 
131 135 
131 136 
131 137 
131 138 
131 139 
131 140 
131 141 
131 142 
131 143 
131 144 
131 149 
131 157 
131 161 
132 133 
132 134 
132 135 
132 136 
132 137 
132 138 
132 139 
132 140 
132 141 
132 142 
132 143 
132 144 
132 145 
132 158 
132 167 
133 134 
133 135 
133 136 
133 137 
133 138 
133 139 
133 140 
133 141 
133 142 
133 143 
133 146 
133 151 
133 159 
133 168 
134 135 
134 136 
134 137 
134 138 
134 139 
134 140 
134 141 
134 142 
134 143 
134 146 
134 147 
134 160 
134 162 
135 136 
135 137 
135 138 
135 139 
135 140 
135 141 
135 142 
135 143 
135 148 
135 156 
135 159 
135 161 
136 137 
136 138 
136 139 
136 140 
136 141 
136 142 
136 143 
136 149 
136 153 
136 162 
136 169 
137 138 
137 139 
137 140 
137 141 
137 142 
137 143 
137 150 
137 154 
137 163 
137 164 
138 139 
138 140 
138 141 
138 142 
138 143 
138 148 
138 151 
138 163 
138 164 
139 140 
139 141 
139 142 
139 143 
139 150 
139 152 
139 165 
139 166 
140 141 
140 142 
140 143 
140 147 
140 153 
140 158 
140 166 
141 142 
141 143 
141 154 
141 155 
141 165 
141 167 
142 143 
142 145 
142 155 
142 160 
142 168 
143 152 
143 156 
143 157 
143 169 
144 145 
144 146 
144 147 
144 148 
144 149 
144 150 
144 151 
144 152 
144 153 
144 154 
144 155 
144 156 
144 157 
144 167 
145 146 
145 147 
145 148 
145 149 
145 150 
145 151 
145 152 
145 153 
145 154 
145 155 
145 156 
145 158 
145 160 
146 147 
146 148 
146 149 
146 150 
146 151 
146 152 
146 153 
146 154 
146 155 
146 156 
146 159 
146 162 
147 148 
147 149 
147 150 
147 151 
147 152 
147 153 
147 154 
147 155 
147 156 
147 158 
147 160 
148 149 
148 150 
148 151 
148 152 
148 153 
148 154 
148 155 
148 156 
148 161 
148 163 
149 150 
149 151 
149 152 
149 153 
149 154 
149 155 
149 156 
149 161 
149 162 
150 151 
150 152 
150 153 
150 154 
150 155 
150 156 
150 163 
150 166 
151 152 
151 153 
151 154 
151 155 
151 156 
151 164 
151 168 
152 153 
152 154 
152 155 
152 156 
152 157 
152 165 
153 154 
153 155 
153 156 
153 166 
153 169 
154 155 
154 156 
154 164 
154 167 
155 156 
155 165 
155 168 
156 159 
156 169 
157 158 
157 159 
157 160 
157 161 
157 162 
157 163 
157 164 
157 165 
157 166 
157 167 
157 168 
157 169 
158 159 
158 160 
158 161 
158 162 
158 163 
158 164 
158 165 
158 166 
158 167 
158 168 
158 169 
159 160 
159 161 
159 162 
159 163 
159 164 
159 165 
159 166 
159 167 
159 168 
159 169 
160 161 
160 162 
160 163 
160 164 
160 165 
160 166 
160 167 
160 168 
160 169 
161 162 
161 163 
161 164 
161 165 
161 166 
161 167 
161 168 
161 169 
162 163 
162 164 
162 165 
162 166 
162 167 
162 168 
162 169 
163 164 
163 165 
163 166 
163 167 
163 168 
163 169 
164 165 
164 166 
164 167 
164 168 
164 169 
165 166 
165 167 
165 168 
165 169 
166 167 
166 168 
166 169 
167 168 
167 169 
168 169 
